NAME          DCAP_3_4_2_500_SS146
ROWS
 N  OBJ
 L  CON1
 L  CON2
 L  CON3
 L  CON4
 L  CON5
 L  CON6
 L  CON7
 L  CON8
 L  CON9
 L  CON10
 L  CON11
 L  CON12
 E  CON13
 E  CON14
 E  CON15
 E  CON16
 E  CON17
 E  CON18
 E  CON19
 E  CON20
COLUMNS
    x[1,1]    OBJ       6.180167      CON1      1.000000    
    x[1,1]    CON7      -1.000000     CON8      -1.000000   
    x[1,2]    OBJ       5.039546      CON2      1.000000    
    x[1,2]    CON8      -1.000000   
    x[2,1]    OBJ       6.732585      CON3      1.000000    
    x[2,1]    CON9      -1.000000     CON10     -1.000000   
    x[2,2]    OBJ       7.443064      CON4      1.000000    
    x[2,2]    CON10     -1.000000   
    x[3,1]    OBJ       6.563535      CON5      1.000000    
    x[3,1]    CON11     -1.000000     CON12     -1.000000   
    x[3,2]    OBJ       6.054841      CON6      1.000000    
    x[3,2]    CON12     -1.000000   
    MARKER    'MARKER'                'INTORG'
    u[1,1]    OBJ       48.076654     CON1      -1.000000   
    u[1,2]    OBJ       49.466655     CON2      -1.000000   
    u[2,1]    OBJ       49.996186     CON3      -1.000000   
    u[2,2]    OBJ       32.230043     CON4      -1.000000   
    u[3,1]    OBJ       20.066487     CON5      -1.000000   
    u[3,2]    OBJ       27.484319     CON6      -1.000000   
    y[1,1,1]  OBJ       6.513841      CON7      0.758959    
    y[1,1,1]  CON13     1.000000    
    y[1,1,2]  OBJ       9.751371      CON8      0.684132    
    y[1,1,2]  CON14     1.000000    
    y[1,2,1]  OBJ       9.273531      CON7      1.250781    
    y[1,2,1]  CON15     1.000000    
    y[1,2,2]  OBJ       5.320835      CON8      0.566727    
    y[1,2,2]  CON16     1.000000    
    y[1,3,1]  OBJ       8.063726      CON7      1.422223    
    y[1,3,1]  CON17     1.000000    
    y[1,3,2]  OBJ       8.445627      CON8      0.695899    
    y[1,3,2]  CON18     1.000000    
    y[1,4,1]  OBJ       7.599572      CON7      1.436270    
    y[1,4,1]  CON19     1.000000    
    y[1,4,2]  OBJ       9.867680      CON8      0.602290    
    y[1,4,2]  CON20     1.000000    
    y[2,1,1]  OBJ       7.396419      CON9      0.758959    
    y[2,1,1]  CON13     1.000000    
    y[2,1,2]  OBJ       6.482330      CON10     0.684132    
    y[2,1,2]  CON14     1.000000    
    y[2,2,1]  OBJ       8.549199      CON9      1.250781    
    y[2,2,1]  CON15     1.000000    
    y[2,2,2]  OBJ       9.572348      CON10     0.566727    
    y[2,2,2]  CON16     1.000000    
    y[2,3,1]  OBJ       5.004269      CON9      1.422223    
    y[2,3,1]  CON17     1.000000    
    y[2,3,2]  OBJ       8.110285      CON10     0.695899    
    y[2,3,2]  CON18     1.000000    
    y[2,4,1]  OBJ       8.707898      CON9      1.436270    
    y[2,4,1]  CON19     1.000000    
    y[2,4,2]  OBJ       9.921123      CON10     0.602290    
    y[2,4,2]  CON20     1.000000    
    y[3,1,1]  OBJ       8.529772      CON11     0.758959    
    y[3,1,1]  CON13     1.000000    
    y[3,1,2]  OBJ       6.194498      CON12     0.684132    
    y[3,1,2]  CON14     1.000000    
    y[3,2,1]  OBJ       6.363703      CON11     1.250781    
    y[3,2,1]  CON15     1.000000    
    y[3,2,2]  OBJ       6.932509      CON12     0.566727    
    y[3,2,2]  CON16     1.000000    
    y[3,3,1]  OBJ       5.783210      CON11     1.422223    
    y[3,3,1]  CON17     1.000000    
    y[3,3,2]  OBJ       9.613749      CON12     0.695899    
    y[3,3,2]  CON18     1.000000    
    y[3,4,1]  OBJ       6.932081      CON11     1.436270    
    y[3,4,1]  CON19     1.000000    
    y[3,4,2]  OBJ       5.146759      CON12     0.602290    
    y[3,4,2]  CON20     1.000000    
    z[1,1]    OBJ       561.479521    CON13     1.000000    
    z[1,2]    OBJ       609.764821    CON14     1.000000    
    z[2,1]    OBJ       571.355454    CON15     1.000000    
    z[2,2]    OBJ       866.703692    CON16     1.000000    
    z[3,1]    OBJ       530.718985    CON17     1.000000    
    z[3,2]    OBJ       675.625836    CON18     1.000000    
    z[4,1]    OBJ       705.831260    CON19     1.000000    
    z[4,2]    OBJ       968.323335    CON20     1.000000    
    MARKER    'MARKER'                 'INTEND'
RHS
    RHS       CON1      -0.000000     CON2      -0.000000   
    RHS       CON3      -0.000000     CON4      -0.000000   
    RHS       CON5      -0.000000     CON6      -0.000000   
    RHS       CON7      -0.000000     CON8      -0.000000   
    RHS       CON9      -0.000000     CON10     -0.000000   
    RHS       CON11     -0.000000     CON12     -0.000000   
    RHS       CON13     1.000000      CON14     1.000000    
    RHS       CON15     1.000000      CON16     1.000000    
    RHS       CON17     1.000000      CON18     1.000000    
    RHS       CON19     1.000000      CON20     1.000000    
BOUNDS
 BV BOUND     u[1,1]  
 BV BOUND     u[1,2]  
 BV BOUND     u[2,1]  
 BV BOUND     u[2,2]  
 BV BOUND     u[3,1]  
 BV BOUND     u[3,2]  
 BV BOUND     y[1,1,1]
 BV BOUND     y[1,1,2]
 BV BOUND     y[1,2,1]
 BV BOUND     y[1,2,2]
 BV BOUND     y[1,3,1]
 BV BOUND     y[1,3,2]
 BV BOUND     y[1,4,1]
 BV BOUND     y[1,4,2]
 BV BOUND     y[2,1,1]
 BV BOUND     y[2,1,2]
 BV BOUND     y[2,2,1]
 BV BOUND     y[2,2,2]
 BV BOUND     y[2,3,1]
 BV BOUND     y[2,3,2]
 BV BOUND     y[2,4,1]
 BV BOUND     y[2,4,2]
 BV BOUND     y[3,1,1]
 BV BOUND     y[3,1,2]
 BV BOUND     y[3,2,1]
 BV BOUND     y[3,2,2]
 BV BOUND     y[3,3,1]
 BV BOUND     y[3,3,2]
 BV BOUND     y[3,4,1]
 BV BOUND     y[3,4,2]
 BV BOUND     z[1,1]  
 BV BOUND     z[1,2]  
 BV BOUND     z[2,1]  
 BV BOUND     z[2,2]  
 BV BOUND     z[3,1]  
 BV BOUND     z[3,2]  
 BV BOUND     z[4,1]  
 BV BOUND     z[4,2]  
ENDATA
